 &control
    calculation = 'scf'
    restart_mode='from_scratch',
    prefix='C10Si10',
    pseudo_dir = './',
    outdir='./'
 /
&system                      
 ibrav=0,                   
 nat=20,                     
 ntyp=2                      
 ecutwfc = 40.0
 /
 &electrons
    diagonalization='david'
    mixing_mode = 'plain'
    mixing_beta = 0.7
    conv_thr =  1.0d-8
 /
ATOMIC_SPECIES
 Si  1.0  Si.pz-vbc.UPF
  C  1.0  C.pz-vbc.UPF
ATOMIC_POSITIONS (crystal)
  C       0.00001799531669   0.00003599063336   0.07517534791294  ! // C 
  C       0.66666587233084   0.33333174466168   0.17501274420535  ! // C 
  C       0.33332027648918   0.66664055297836   0.27491466390476  ! // C 
  C       0.99998205892460   0.99996411784921   0.37517380516960  ! // C 
  C       0.33333368671321   0.66666737342642   0.47489279635306  ! // C 
  C       0.66666394119794   0.33332788239588   0.57517516551368  ! // C 
  C       0.33332007623233   0.66664015246466   0.67489327249469  ! // C 
  C       0.99998207335736   0.99996414671472   0.77517565558792  ! // C 
  C       0.33333420828776   0.66666841657552   0.87501290635123  ! // C 
  C       0.66667979191600   0.33335958383200   0.97491420024040  ! // C 
  Si      0.00001818844153   0.00003637688305   0.99997256514391  ! // Si 
  Si      0.66667904284959   0.33335808569918   0.10001453543747  ! // Si 
  Si      0.33333424729380   0.66666849458760   0.19990981160190  ! // Si 
  Si      0.99998170160883   0.99996340321766   0.29997456143934  ! // Si 
  Si      0.33332066644751   0.66664133289503   0.39995549390119  ! // Si 
  Si      0.66666350748776   0.33332701497552   0.49997353888096  ! // Si 
  Si      0.33333430577738   0.66666861155477   0.59995858264502  ! // Si 
  Si      0.99998180923175   0.99996361846349   0.69997199373904  ! // Si 
  Si      0.33332087286901   0.66664174573801   0.80001665139322  ! // Si 
  Si      0.66666567722694   0.33333135445389   0.89991170808432  ! // Si 
CELL_PARAMETERS (angstrom)
   1.54705276219244  -2.67957398610707   0.00000000000000
   1.54704454621123   2.67956924260811   0.00000057848064
   0.00000474002304   0.00000273665358  25.30947217989649
K_POINTS {automatic}
2 2 2 0 0 0
