&CONTROL
calculation = 'scf' ,
restart_mode = 'from_scratch' ,
pseudo_dir = './',
outdir='./'
prefix = 'phosphorene' ,
/
&SYSTEM
ibrav = 0,
A =    3.31330
nat = 4,
ntyp = 1,
ecutwfc = 60 ,
ecutrho = 600 ,
/
&ELECTRONS
conv_thr = 1.0d-8,
mixing_mode = 'plain' ,
mixing_beta = 0.7 ,
diagonalization = 'david' ,
/
CELL_PARAMETERS {alat}
   0.995533608   0.000000000   0.000000000
   0.000000000   5.500000000   0.000000000
   0.000000000   0.000000000   1.395686171
ATOMIC_SPECIES
P 30.973761998 P.pbe-n-kjpaw_psl.0.1.UPF
ATOMIC_POSITIONS (angstrom)
P        1.649250751   4.185964696   4.211096940
P        0.000000000   6.287035304   1.898933520
P        0.000000000   4.185964696   2.725393545
P        1.649250751   6.287035304   0.413229975
K_POINTS automatic
10 1 10 0 0 0
